benchmarks_CP/INST_49x49/50/inst49x49_50_20.dzn
S=7;
start=[|
37,	-1,	34,	-1,	-1,	-1,	-1,	-1,	15,	31,	-1,	20,	-1,	38,	44,	-1,	49,	-1,	-1,	27,	35,	-1,	3,	42,	40,	1,	-1,	-1,	-1,	-1,	11,	-1,	-1,	10,	-1,	46,	23,	-1,	-1,	25,	-1,	36,	-1,	-1,	-1,	-1,	6,	32,	-1|
7,	11,	-1,	23,	-1,	-1,	-1,	-1,	41,	-1,	4,	-1,	-1,	-1,	26,	21,	13,	-1,	17,	29,	43,	46,	-1,	-1,	12,	-1,	-1,	2,	-1,	36,	-1,	-1,	-1,	-1,	-1,	42,	-1,	6,	-1,	18,	35,	-1,	-1,	47,	14,	40,	-1,	-1,	39|
14,	28,	-1,	17,	21,	-1,	-1,	13,	39,	6,	46,	42,	43,	-1,	-1,	-1,	10,	-1,	-1,	-1,	12,	27,	-1,	-1,	24,	-1,	5,	-1,	30,	-1,	4,	-1,	-1,	-1,	29,	15,	-1,	-1,	-1,	32,	2,	-1,	-1,	7,	-1,	3,	48,	20,	23|
20,	-1,	42,	-1,	9,	8,	41,	-1,	10,	36,	-1,	35,	26,	-1,	32,	33,	-1,	-1,	-1,	-1,	6,	49,	-1,	14,	-1,	18,	19,	30,	-1,	23,	-1,	38,	-1,	22,	31,	39,	-1,	-1,	-1,	-1,	47,	34,	24,	-1,	1,	-1,	-1,	-1,	13|
-1,	5,	46,	13,	15,	36,	-1,	-1,	14,	-1,	25,	1,	48,	7,	-1,	-1,	-1,	-1,	-1,	2,	3,	32,	-1,	22,	35,	-1,	-1,	-1,	18,	-1,	-1,	-1,	-1,	-1,	-1,	19,	33,	-1,	-1,	-1,	-1,	-1,	-1,	-1,	49,	-1,	-1,	-1,	-1|
-1,	39,	-1,	-1,	-1,	40,	-1,	-1,	-1,	18,	-1,	32,	-1,	44,	-1,	-1,	-1,	20,	-1,	-1,	-1,	17,	13,	-1,	-1,	10,	21,	23,	14,	42,	-1,	-1,	9,	3,	-1,	-1,	31,	26,	48,	49,	-1,	5,	-1,	25,	33,	-1,	-1,	11,	41|
-1,	-1,	-1,	27,	-1,	33,	35,	-1,	23,	49,	-1,	-1,	28,	22,	-1,	-1,	7,	-1,	-1,	-1,	-1,	44,	11,	37,	-1,	29,	-1,	-1,	8,	39,	-1,	-1,	12,	2,	43,	3,	1,	-1,	41,	20,	-1,	38,	-1,	17,	-1,	-1,	-1,	-1,	46|
32,	10,	2,	48,	-1,	-1,	18,	29,	24,	41,	22,	-1,	35,	8,	-1,	3,	28,	-1,	-1,	42,	-1,	31,	-1,	-1,	37,	15,	1,	43,	25,	26,	7,	-1,	6,	-1,	-1,	47,	-1,	-1,	17,	33,	49,	16,	-1,	38,	-1,	-1,	36,	14,	11|
-1,	-1,	3,	-1,	-1,	47,	-1,	-1,	18,	45,	-1,	-1,	16,	12,	6,	19,	36,	10,	-1,	11,	-1,	-1,	41,	30,	44,	2,	14,	32,	-1,	17,	-1,	-1,	-1,	4,	-1,	28,	9,	-1,	1,	-1,	-1,	-1,	21,	-1,	20,	24,	-1,	46,	35|
-1,	-1,	-1,	40,	25,	-1,	-1,	-1,	21,	9,	7,	36,	4,	-1,	48,	-1,	-1,	-1,	-1,	-1,	47,	34,	27,	13,	23,	22,	-1,	28,	2,	46,	44,	-1,	16,	38,	49,	-1,	39,	-1,	-1,	5,	-1,	11,	1,	33,	-1,	-1,	3,	43,	19|
-1,	22,	-1,	9,	-1,	12,	5,	-1,	-1,	38,	42,	49,	20,	-1,	17,	-1,	23,	-1,	-1,	33,	7,	21,	46,	-1,	6,	-1,	-1,	47,	19,	-1,	1,	-1,	39,	28,	48,	35,	36,	-1,	-1,	-1,	-1,	18,	37,	-1,	8,	34,	25,	-1,	27|
36,	-1,	4,	-1,	20,	-1,	-1,	28,	19,	46,	6,	-1,	17,	5,	40,	-1,	1,	-1,	43,	21,	38,	7,	35,	-1,	-1,	-1,	-1,	-1,	-1,	24,	3,	-1,	15,	27,	-1,	34,	-1,	-1,	-1,	12,	48,	-1,	-1,	-1,	-1,	-1,	-1,	16,	-1|
16,	-1,	27,	-1,	-1,	-1,	-1,	-1,	-1,	-1,	-1,	25,	-1,	-1,	-1,	-1,	20,	-1,	-1,	31,	-1,	5,	-1,	-1,	-1,	19,	-1,	48,	-1,	-1,	-1,	47,	-1,	-1,	-1,	-1,	8,	-1,	22,	-1,	30,	-1,	7,	-1,	29,	-1,	44,	-1,	15|
-1,	-1,	21,	11,	28,	-1,	-1,	27,	-1,	-1,	32,	-1,	-1,	-1,	-1,	30,	-1,	-1,	12,	15,	-1,	24,	49,	18,	38,	-1,	-1,	20,	29,	-1,	35,	33,	14,	36,	-1,	44,	42,	7,	25,	-1,	6,	-1,	48,	-1,	-1,	-1,	2,	31,	10|
34,	-1,	8,	20,	-1,	39,	27,	2,	13,	-1,	-1,	12,	11,	24,	-1,	-1,	18,	-1,	5,	19,	-1,	-1,	44,	32,	30,	-1,	-1,	-1,	-1,	-1,	41,	9,	17,	15,	-1,	48,	-1,	-1,	-1,	-1,	-1,	42,	40,	-1,	6,	-1,	43,	-1,	49|
-1,	-1,	-1,	-1,	-1,	-1,	17,	-1,	3,	15,	-1,	-1,	-1,	6,	46,	8,	39,	-1,	-1,	38,	-1,	35,	-1,	12,	-1,	14,	-1,	10,	24,	-1,	5,	25,	-1,	-1,	18,	-1,	49,	-1,	43,	-1,	-1,	-1,	-1,	-1,	-1,	45,	16,	-1,	-1|
-1,	47,	-1,	2,	6,	37,	12,	-1,	-1,	48,	-1,	22,	5,	23,	14,	26,	-1,	15,	-1,	-1,	42,	-1,	43,	28,	7,	20,	-1,	4,	-1,	35,	16,	1,	-1,	30,	-1,	-1,	17,	9,	-1,	-1,	39,	24,	31,	3,	27,	38,	-1,	19,	29|
-1,	-1,	48,	-1,	-1,	-1,	44,	-1,	-1,	-1,	27,	-1,	-1,	42,	16,	31,	-1,	43,	47,	-1,	20,	33,	-1,	5,	-1,	41,	-1,	34,	11,	-1,	12,	-1,	38,	7,	-1,	-1,	37,	-1,	10,	-1,	40,	-1,	-1,	-1,	-1,	-1,	-1,	17,	32|
40,	3,	-1,	-1,	-1,	-1,	-1,	-1,	-1,	-1,	20,	-1,	-1,	1,	12,	-1,	41,	35,	-1,	24,	-1,	-1,	-1,	-1,	-1,	25,	-1,	16,	36,	-1,	-1,	28,	-1,	34,	-1,	18,	38,	-1,	-1,	-1,	-1,	44,	-1,	-1,	-1,	-1,	37,	-1,	33|
-1,	30,	36,	46,	41,	-1,	-1,	16,	31,	34,	17,	-1,	39,	28,	3,	-1,	9,	-1,	-1,	22,	-1,	38,	-1,	-1,	2,	-1,	-1,	-1,	-1,	-1,	-1,	23,	45,	-1,	14,	-1,	-1,	27,	-1,	13,	5,	15,	-1,	-1,	4,	-1,	47,	-1,	21|
-1,	45,	-1,	-1,	1,	5,	28,	38,	-1,	14,	33,	41,	-1,	46,	-1,	-1,	-1,	-1,	32,	-1,	-1,	8,	9,	-1,	15,	-1,	-1,	-1,	47,	29,	-1,	-1,	19,	39,	-1,	23,	3,	11,	-1,	-1,	34,	35,	20,	-1,	48,	-1,	-1,	-1,	12|
-1,	-1,	-1,	-1,	-1,	11,	40,	3,	48,	-1,	-1,	6,	29,	-1,	-1,	-1,	-1,	23,	-1,	-1,	-1,	9,	-1,	-1,	20,	-1,	37,	-1,	39,	-1,	-1,	-1,	24,	16,	12,	2,	4,	42,	-1,	47,	36,	22,	17,	-1,	-1,	25,	30,	-1,	26|
21,	12,	-1,	-1,	18,	-1,	7,	23,	-1,	-1,	49,	16,	-1,	-1,	34,	46,	29,	2,	45,	-1,	-1,	1,	36,	-1,	14,	35,	-1,	-1,	-1,	31,	13,	11,	47,	25,	-1,	-1,	48,	39,	44,	38,	-1,	27,	-1,	-1,	-1,	-1,	-1,	-1,	-1|
-1,	-1,	-1,	24,	-1,	27,	39,	-1,	-1,	28,	-1,	-1,	30,	-1,	36,	35,	-1,	49,	7,	6,	-1,	-1,	32,	-1,	26,	-1,	-1,	11,	-1,	5,	-1,	-1,	-1,	14,	-1,	17,	-1,	-1,	-1,	-1,	21,	3,	13,	44,	-1,	-1,	-1,	34,	48|
9,	2,	-1,	-1,	-1,	43,	47,	21,	-1,	20,	39,	-1,	36,	-1,	11,	-1,	5,	-1,	44,	16,	37,	-1,	-1,	34,	3,	-1,	-1,	-1,	-1,	-1,	19,	35,	-1,	-1,	28,	13,	25,	41,	-1,	-1,	10,	-1,	46,	-1,	-1,	49,	24,	6,	-1|
31,	-1,	-1,	-1,	22,	-1,	-1,	44,	27,	32,	-1,	-1,	-1,	-1,	-1,	-1,	43,	-1,	-1,	-1,	10,	-1,	4,	46,	49,	-1,	-1,	-1,	48,	-1,	-1,	18,	-1,	-1,	38,	-1,	45,	33,	-1,	34,	-1,	-1,	-1,	-1,	11,	-1,	-1,	-1,	1|
38,	6,	-1,	-1,	-1,	34,	-1,	-1,	-1,	-1,	9,	-1,	-1,	11,	-1,	-1,	-1,	42,	-1,	26,	-1,	22,	-1,	-1,	45,	40,	-1,	-1,	23,	-1,	27,	4,	-1,	17,	44,	-1,	-1,	43,	46,	8,	32,	28,	2,	-1,	36,	-1,	-1,	7,	-1|
3,	-1,	28,	49,	32,	-1,	-1,	14,	-1,	-1,	5,	-1,	-1,	34,	22,	-1,	17,	-1,	-1,	13,	-1,	25,	-1,	-1,	19,	-1,	-1,	-1,	-1,	37,	36,	30,	33,	1,	26,	-1,	-1,	-1,	35,	40,	31,	-1,	43,	10,	-1,	27,	-1,	18,	-1|
17,	-1,	10,	-1,	-1,	6,	48,	-1,	-1,	42,	-1,	31,	38,	-1,	-1,	-1,	-1,	-1,	-1,	-1,	46,	-1,	-1,	44,	-1,	-1,	-1,	33,	32,	34,	-1,	-1,	-1,	-1,	41,	-1,	24,	15,	-1,	-1,	37,	45,	47,	-1,	-1,	-1,	27,	-1,	-1|
-1,	41,	12,	33,	-1,	-1,	-1,	40,	43,	8,	-1,	-1,	2,	9,	-1,	20,	6,	-1,	-1,	4,	34,	15,	29,	49,	10,	28,	-1,	1,	-1,	16,	18,	-1,	11,	24,	47,	-1,	19,	35,	42,	-1,	22,	48,	44,	-1,	13,	5,	14,	-1,	-1|
29,	-1,	-1,	-1,	-1,	-1,	-1,	35,	6,	33,	26,	-1,	49,	-1,	-1,	45,	42,	27,	-1,	12,	-1,	36,	-1,	21,	-1,	8,	7,	-1,	-1,	30,	-1,	-1,	37,	40,	-1,	-1,	-1,	-1,	-1,	46,	41,	-1,	-1,	22,	-1,	-1,	23,	-1,	-1|
-1,	-1,	-1,	-1,	5,	-1,	49,	17,	29,	37,	-1,	39,	-1,	-1,	8,	11,	31,	32,	-1,	43,	30,	-1,	-1,	-1,	18,	6,	-1,	-1,	9,	28,	14,	7,	-1,	-1,	-1,	27,	12,	36,	-1,	-1,	-1,	-1,	19,	-1,	-1,	15,	-1,	-1,	-1|
-1,	-1,	-1,	22,	23,	35,	-1,	19,	12,	-1,	30,	-1,	-1,	15,	41,	36,	-1,	-1,	-1,	18,	17,	-1,	-1,	-1,	42,	-1,	-1,	-1,	-1,	-1,	-1,	-1,	5,	-1,	-1,	11,	40,	-1,	-1,	-1,	-1,	10,	-1,	-1,	-1,	32,	-1,	-1,	6|
-1,	-1,	40,	-1,	16,	-1,	-1,	48,	4,	-1,	3,	46,	24,	32,	-1,	1,	44,	-1,	-1,	-1,	5,	20,	19,	-1,	-1,	-1,	-1,	-1,	-1,	25,	23,	39,	-1,	29,	36,	38,	-1,	-1,	9,	-1,	7,	-1,	-1,	-1,	-1,	31,	49,	-1,	-1|
30,	20,	19,	-1,	-1,	28,	-1,	41,	-1,	-1,	-1,	-1,	22,	18,	23,	-1,	-1,	-1,	10,	40,	26,	-1,	-1,	-1,	39,	-1,	-1,	12,	15,	-1,	-1,	-1,	42,	-1,	35,	21,	13,	-1,	-1,	-1,	8,	31,	45,	-1,	-1,	11,	-1,	-1,	-1|
49,	17,	26,	-1,	30,	22,	19,	-1,	-1,	23,	12,	-1,	45,	-1,	13,	25,	-1,	4,	-1,	-1,	2,	-1,	-1,	27,	-1,	-1,	-1,	-1,	34,	14,	-1,	-1,	36,	-1,	-1,	-1,	43,	40,	-1,	-1,	-1,	6,	32,	31,	-1,	-1,	-1,	-1,	-1|
12,	29,	18,	36,	-1,	16,	-1,	-1,	20,	-1,	-1,	2,	42,	-1,	31,	44,	32,	19,	-1,	39,	48,	10,	15,	8,	-1,	-1,	-1,	7,	45,	-1,	-1,	37,	-1,	-1,	9,	-1,	-1,	4,	3,	27,	-1,	14,	-1,	-1,	22,	17,	-1,	-1,	5|
-1,	38,	13,	44,	2,	45,	32,	-1,	-1,	-1,	-1,	-1,	-1,	-1,	-1,	-1,	-1,	24,	-1,	34,	-1,	-1,	-1,	-1,	22,	31,	-1,	36,	-1,	10,	-1,	-1,	-1,	-1,	-1,	49,	41,	17,	-1,	-1,	18,	-1,	-1,	-1,	-1,	-1,	9,	-1,	25|
-1,	21,	-1,	28,	42,	20,	3,	32,	-1,	-1,	24,	-1,	18,	-1,	-1,	-1,	38,	17,	6,	30,	41,	-1,	25,	-1,	11,	-1,	34,	19,	43,	1,	-1,	-1,	-1,	49,	22,	-1,	-1,	47,	-1,	-1,	-1,	12,	-1,	-1,	44,	-1,	46,	29,	-1|
-1,	-1,	37,	25,	34,	41,	-1,	43,	-1,	-1,	31,	3,	7,	48,	-1,	23,	-1,	-1,	8,	-1,	22,	16,	-1,	-1,	-1,	12,	-1,	-1,	26,	-1,	39,	-1,	4,	11,	-1,	-1,	-1,	21,	-1,	42,	44,	-1,	35,	-1,	-1,	20,	13,	-1,	-1|
-1,	27,	-1,	-1,	-1,	10,	-1,	-1,	-1,	26,	-1,	-1,	44,	-1,	43,	5,	11,	-1,	18,	-1,	21,	2,	-1,	48,	4,	-1,	-1,	-1,	-1,	-1,	31,	20,	28,	12,	25,	22,	-1,	-1,	-1,	-1,	-1,	13,	39,	-1,	42,	1,	33,	-1,	-1|
4,	-1,	-1,	7,	43,	-1,	14,	22,	-1,	-1,	28,	-1,	33,	17,	20,	9,	-1,	37,	-1,	-1,	49,	26,	-1,	47,	21,	-1,	-1,	-1,	-1,	19,	-1,	-1,	3,	32,	24,	45,	-1,	25,	-1,	48,	11,	-1,	27,	-1,	-1,	36,	12,	41,	34|
27,	36,	49,	-1,	3,	-1,	-1,	-1,	5,	16,	-1,	-1,	19,	14,	24,	-1,	45,	7,	28,	17,	-1,	41,	21,	1,	-1,	-1,	-1,	-1,	-1,	-1,	29,	40,	-1,	31,	33,	-1,	20,	-1,	39,	-1,	15,	23,	10,	-1,	-1,	42,	26,	-1,	30|
42,	26,	9,	32,	11,	25,	-1,	20,	40,	12,	-1,	48,	31,	29,	-1,	-1,	37,	-1,	33,	-1,	39,	-1,	-1,	-1,	46,	-1,	16,	44,	49,	7,	-1,	45,	-1,	-1,	-1,	8,	34,	-1,	-1,	-1,	43,	47,	41,	24,	-1,	13,	-1,	27,	4|
-1,	31,	-1,	4,	48,	17,	20,	-1,	-1,	-1,	21,	24,	32,	-1,	42,	16,	12,	22,	-1,	1,	15,	30,	-1,	-1,	-1,	9,	11,	26,	-1,	-1,	25,	5,	43,	-1,	-1,	-1,	-1,	-1,	38,	19,	-1,	2,	-1,	-1,	23,	14,	8,	-1,	-1|
23,	13,	47,	19,	-1,	-1,	-1,	25,	2,	-1,	41,	28,	-1,	-1,	21,	34,	-1,	-1,	38,	48,	11,	-1,	8,	-1,	31,	-1,	-1,	49,	-1,	22,	-1,	46,	32,	26,	-1,	-1,	14,	-1,	36,	6,	-1,	29,	3,	20,	-1,	9,	5,	1,	43|
43,	16,	14,	35,	-1,	7,	45,	-1,	-1,	-1,	-1,	-1,	37,	30,	27,	-1,	19,	-1,	-1,	8,	-1,	-1,	-1,	25,	-1,	24,	-1,	38,	3,	6,	-1,	36,	-1,	48,	-1,	-1,	-1,	-1,	21,	-1,	4,	33,	15,	-1,	-1,	-1,	34,	47,	2|
-1,	44,	22,	29,	33,	-1,	8,	36,	-1,	39,	38,	-1,	-1,	-1,	35,	-1,	46,	31,	-1,	-1,	-1,	-1,	-1,	-1,	32,	-1,	40,	17,	-1,	9,	-1,	-1,	34,	20,	27,	-1,	7,	30,	24,	11,	-1,	-1,	6,	-1,	19,	-1,	-1,	-1,	45|
-1,	-1,	5,	-1,	39,	38,	-1,	7,	34,	3,	-1,	-1,	6,	-1,	18,	43,	-1,	-1,	-1,	9,	36,	19,	-1,	-1,	29,	27,	-1,	15,	4,	-1,	-1,	14,	-1,	-1,	-1,	40,	35,	12,	13,	26,	46,	49,	-1,	-1,	-1,	33,	31,	-1,	17|];
