sudoku-ls/benchmarks_LEQ/INST_49x49/50/inst49x49_50_20.txt
7
1
-1	18	34	12	19	4	22	-1	-1	31	-1	-1	-1	38	44	39	-1	-1	41	27	-1	-1	3	42	-1	-1	-1	45	-1	33	-1	26	-1	10	-1	-1	23	-1	-1	-1	17	-1	-1	30	16	-1	6	32	28
-1	-1	32	-1	10	-1	-1	-1	41	5	4	-1	-1	-1	-1	-1	13	-1	17	-1	43	46	20	-1	12	48	9	2	-1	-1	45	-1	25	-1	-1	-1	44	6	-1	-1	-1	30	-1	47	-1	40	19	8	39
-1	28	25	-1	-1	-1	38	-1	-1	-1	46	-1	43	-1	-1	-1	10	-1	-1	-1	12	27	33	36	-1	-1	5	41	30	49	-1	19	-1	-1	29	-1	22	-1	40	-1	-1	9	26	7	-1	-1	48	-1	23
20	43	42	3	9	8	-1	-1	10	36	37	-1	-1	40	32	-1	48	-1	4	25	-1	-1	-1	-1	-1	18	-1	-1	27	-1	-1	-1	-1	-1	31	-1	-1	45	-1	29	-1	34	-1	2	-1	-1	15	-1	-1
-1	5	-1	-1	-1	-1	-1	11	14	17	-1	1	48	7	30	42	24	8	23	2	-1	-1	31	22	-1	39	26	-1	-1	-1	47	-1	-1	-1	-1	-1	-1	-1	-1	43	28	21	38	-1	-1	-1	45	9	37
-1	-1	30	45	-1	-1	-1	-1	8	-1	-1	32	27	44	1	22	-1	20	19	46	-1	-1	-1	38	43	10	21	23	14	-1	15	6	9	-1	7	-1	-1	-1	-1	-1	-1	5	-1	-1	-1	-1	-1	-1	-1
-1	-1	24	-1	-1	-1	-1	-1	-1	49	19	-1	28	-1	47	15	-1	9	31	36	40	-1	-1	37	16	-1	4	25	8	-1	32	-1	12	2	-1	3	1	14	-1	-1	13	-1	34	17	10	18	-1	-1	46
32	-1	2	48	-1	-1	-1	29	24	-1	-1	-1	-1	8	-1	-1	28	-1	27	42	44	-1	39	-1	-1	-1	-1	43	25	-1	7	-1	6	9	-1	47	21	-1	17	-1	49	16	-1	38	40	-1	36	14	11
26	33	3	38	7	-1	34	-1	18	45	48	40	-1	-1	6	-1	36	-1	49	-1	25	29	-1	30	44	2	14	-1	42	-1	37	8	-1	-1	-1	28	9	-1	-1	-1	-1	43	-1	-1	-1	24	-1	46	-1
-1	14	-1	40	25	-1	42	-1	21	9	-1	-1	-1	-1	48	-1	8	18	-1	-1	47	-1	27	13	-1	-1	-1	-1	2	-1	44	-1	-1	38	49	26	-1	-1	-1	-1	-1	-1	1	-1	-1	6	3	43	-1
15	22	-1	-1	29	-1	-1	-1	44	-1	-1	49	-1	3	-1	-1	23	-1	-1	33	-1	-1	46	40	-1	-1	-1	47	-1	-1	1	-1	-1	28	48	35	36	-1	-1	-1	24	18	-1	-1	8	-1	25	-1	27
36	-1	-1	39	20	44	-1	-1	-1	-1	6	14	17	5	40	-1	-1	26	-1	21	38	7	-1	-1	8	-1	-1	42	-1	-1	-1	-1	15	27	30	34	-1	32	-1	-1	48	41	-1	-1	-1	47	22	16	18
16	-1	-1	41	-1	-1	-1	-1	11	2	13	25	1	26	39	32	-1	-1	24	-1	14	5	-1	3	-1	19	36	48	-1	-1	-1	47	18	-1	-1	4	-1	38	-1	-1	30	-1	-1	49	-1	28	-1	-1	15
-1	19	-1	-1	28	-1	1	-1	-1	-1	32	-1	34	-1	-1	-1	22	-1	12	-1	-1	-1	49	-1	38	16	-1	-1	-1	45	-1	33	-1	-1	40	-1	42	7	25	-1	-1	46	48	26	-1	41	2	31	10
-1	23	-1	20	-1	-1	-1	2	13	-1	35	12	-1	24	-1	-1	-1	-1	-1	19	1	3	44	-1	-1	46	-1	-1	33	-1	41	-1	17	-1	10	-1	-1	31	-1	-1	-1	42	-1	14	6	-1	-1	36	49
19	9	33	26	13	32	-1	-1	3	15	44	37	47	-1	46	8	-1	-1	36	-1	29	35	23	12	-1	14	27	10	24	40	5	25	31	42	-1	-1	49	28	43	21	-1	-1	-1	-1	34	-1	16	-1	-1
-1	47	-1	2	-1	37	12	-1	-1	-1	36	-1	-1	23	-1	-1	-1	15	34	44	42	45	43	-1	7	-1	18	-1	46	-1	16	-1	-1	-1	-1	33	17	-1	8	-1	-1	24	-1	3	-1	-1	10	19	-1
-1	-1	-1	15	49	14	-1	-1	-1	29	27	18	-1	42	-1	-1	-1	-1	-1	23	20	-1	-1	-1	36	-1	13	-1	-1	-1	12	22	38	-1	3	25	-1	46	10	-1	40	-1	9	1	30	-1	-1	17	32
40	3	-1	42	-1	-1	-1	-1	30	-1	-1	43	-1	-1	12	17	-1	-1	13	24	45	-1	26	11	47	-1	29	16	-1	48	49	28	-1	34	-1	18	38	22	-1	2	14	44	-1	5	-1	23	-1	-1	33
18	30	36	46	-1	29	-1	-1	-1	-1	-1	-1	-1	28	3	48	-1	-1	-1	22	-1	-1	1	-1	-1	-1	42	-1	-1	-1	-1	-1	-1	6	-1	12	26	27	32	-1	-1	-1	-1	-1	-1	44	-1	24	21
-1	-1	16	-1	1	5	28	-1	25	14	33	41	40	46	-1	10	27	-1	32	49	-1	-1	9	17	-1	-1	-1	31	-1	29	-1	-1	-1	-1	-1	23	3	-1	-1	-1	34	35	20	42	-1	7	18	-1	12
-1	-1	-1	-1	-1	11	40	-1	48	-1	18	-1	-1	-1	19	28	-1	23	1	32	27	9	-1	-1	20	-1	37	13	39	8	34	-1	-1	-1	12	-1	-1	42	-1	47	-1	22	-1	-1	38	-1	-1	33	-1
-1	12	17	30	18	19	-1	-1	26	4	-1	16	15	43	-1	-1	-1	2	-1	-1	-1	1	-1	10	14	-1	33	8	-1	31	13	11	-1	25	-1	6	48	39	44	-1	9	-1	5	-1	37	-1	-1	3	-1
-1	-1	29	-1	-1	27	39	42	47	28	40	19	-1	2	-1	-1	25	-1	7	-1	18	-1	-1	31	-1	43	-1	-1	22	-1	9	10	-1	-1	-1	17	-1	-1	12	16	21	-1	-1	-1	45	8	41	34	48
9	-1	-1	14	-1	-1	-1	21	-1	-1	39	38	36	33	11	4	-1	-1	44	-1	-1	-1	18	-1	-1	17	-1	-1	40	32	-1	-1	-1	45	28	-1	-1	41	-1	-1	-1	26	46	12	-1	49	-1	-1	31
31	25	-1	-1	22	-1	36	-1	27	-1	-1	-1	-1	13	9	40	43	12	30	-1	10	-1	4	-1	49	47	-1	-1	-1	-1	-1	-1	-1	21	-1	-1	-1	-1	5	-1	19	-1	-1	-1	-1	35	-1	-1	1
38	-1	41	5	35	-1	-1	-1	1	-1	9	-1	25	-1	15	-1	-1	-1	21	26	31	-1	12	-1	45	40	-1	39	23	-1	27	-1	49	17	-1	-1	-1	43	46	8	32	28	2	-1	36	-1	20	-1	-1
3	42	28	49	-1	48	23	-1	-1	-1	5	-1	-1	-1	-1	-1	17	41	39	-1	8	25	-1	16	-1	-1	-1	21	6	37	36	30	-1	1	26	-1	-1	29	-1	40	31	-1	-1	10	-1	27	-1	-1	9
17	-1	-1	21	4	6	48	5	-1	42	16	31	-1	-1	49	13	-1	39	-1	-1	-1	-1	-1	44	25	-1	-1	33	32	34	-1	3	26	-1	41	-1	-1	-1	-1	-1	37	-1	47	-1	12	29	-1	-1	-1
46	41	12	-1	36	-1	26	40	-1	8	45	-1	-1	9	37	20	6	-1	-1	-1	34	15	-1	-1	10	28	-1	-1	-1	-1	-1	-1	-1	-1	-1	32	-1	35	42	-1	-1	-1	44	-1	-1	5	-1	30	7
29	32	44	-1	14	-1	-1	-1	6	33	-1	-1	-1	25	38	45	42	27	15	12	-1	-1	34	21	-1	-1	-1	5	-1	-1	-1	48	-1	40	-1	-1	47	2	16	-1	-1	39	-1	22	3	-1	23	-1	24
-1	-1	38	47	-1	24	-1	17	-1	37	10	39	-1	20	8	-1	31	32	48	43	30	13	-1	35	-1	6	-1	-1	-1	28	-1	-1	-1	-1	-1	-1	12	-1	26	-1	3	-1	19	-1	2	15	40	25	-1
39	7	45	-1	-1	35	43	-1	12	-1	30	21	14	15	41	36	-1	-1	9	-1	-1	48	-1	-1	42	-1	46	-1	31	27	20	13	5	8	2	-1	-1	-1	-1	28	-1	10	4	34	26	32	1	-1	-1
13	-1	40	-1	-1	-1	2	-1	-1	11	-1	46	24	-1	-1	1	44	47	-1	-1	5	-1	19	-1	-1	-1	-1	-1	12	25	-1	-1	-1	29	-1	38	6	-1	9	-1	7	17	-1	-1	41	-1	-1	21	8
-1	20	-1	37	27	-1	25	-1	7	1	47	-1	-1	-1	23	24	-1	-1	10	40	-1	4	38	-1	39	32	2	-1	-1	44	-1	49	-1	46	35	-1	-1	-1	-1	-1	-1	31	45	16	-1	11	-1	-1	36
49	-1	26	8	-1	22	-1	-1	-1	-1	-1	11	45	-1	13	25	-1	4	3	28	-1	37	-1	27	1	-1	-1	-1	34	-1	46	-1	-1	35	-1	-1	43	40	-1	-1	33	6	-1	31	21	-1	-1	10	47
-1	-1	-1	-1	-1	16	33	-1	-1	25	-1	-1	42	21	31	-1	-1	-1	46	-1	48	10	-1	-1	-1	-1	35	7	45	47	40	-1	-1	13	-1	1	-1	-1	3	27	23	14	-1	-1	-1	17	-1	-1	-1
11	38	13	44	-1	45	32	-1	35	-1	-1	-1	46	-1	-1	-1	26	24	-1	34	16	43	14	-1	22	-1	3	-1	-1	-1	-1	-1	8	-1	-1	-1	41	17	-1	39	18	-1	-1	-1	28	-1	-1	-1	25
-1	-1	39	-1	-1	-1	3	32	9	10	-1	-1	-1	-1	7	-1	-1	17	-1	-1	-1	-1	-1	45	-1	13	34	19	43	1	-1	-1	-1	49	22	-1	-1	47	31	-1	-1	12	-1	8	-1	-1	-1	29	-1
-1	-1	37	25	34	-1	-1	-1	-1	30	-1	3	7	-1	-1	-1	-1	-1	-1	14	-1	-1	28	6	33	-1	-1	46	26	18	-1	27	4	-1	17	10	2	21	-1	42	-1	32	35	15	24	-1	13	-1	-1
47	27	-1	-1	-1	-1	-1	8	-1	-1	14	29	44	19	43	5	-1	36	-1	-1	-1	-1	17	-1	4	-1	-1	-1	-1	41	-1	-1	-1	12	-1	-1	-1	-1	34	-1	-1	-1	39	-1	42	-1	33	37	-1
4	-1	-1	-1	-1	31	14	22	-1	-1	-1	-1	33	-1	20	9	35	37	-1	10	-1	26	-1	47	21	42	39	-1	-1	19	38	-1	-1	-1	-1	45	-1	25	-1	48	11	-1	27	-1	-1	-1	12	41	34
27	36	-1	-1	-1	-1	-1	-1	-1	-1	-1	8	19	-1	24	-1	-1	7	28	-1	-1	41	21	1	13	4	47	35	-1	38	-1	40	-1	31	33	9	20	48	-1	22	-1	23	-1	11	25	-1	-1	12	30
42	-1	-1	32	-1	-1	21	20	40	-1	-1	48	31	29	-1	-1	37	-1	-1	-1	-1	6	22	-1	-1	-1	16	44	-1	7	-1	45	-1	23	-1	-1	-1	-1	-1	17	43	47	-1	24	35	-1	38	27	-1
-1	-1	-1	4	-1	17	20	-1	-1	47	21	24	-1	-1	-1	16	12	-1	-1	-1	-1	30	-1	-1	-1	9	-1	-1	35	-1	-1	5	-1	18	-1	-1	27	3	-1	-1	45	-1	28	36	23	-1	-1	40	44
23	13	-1	19	-1	-1	-1	25	-1	27	-1	28	-1	35	21	34	4	44	-1	48	11	12	-1	-1	31	-1	45	49	17	-1	-1	-1	-1	26	-1	16	14	37	-1	-1	42	29	3	20	7	9	-1	-1	-1
-1	16	-1	-1	12	-1	45	-1	-1	22	23	9	37	-1	-1	49	-1	40	-1	8	-1	18	42	25	5	-1	20	-1	3	6	28	36	-1	48	11	31	-1	44	-1	10	-1	-1	15	-1	39	-1	-1	47	2
-1	44	-1	29	33	15	8	-1	42	39	-1	26	-1	4	-1	-1	-1	-1	2	-1	23	14	-1	43	32	-1	40	17	16	-1	10	-1	34	20	-1	-1	-1	-1	-1	11	-1	-1	-1	-1	19	-1	-1	-1	45
41	37	-1	-1	-1	38	24	7	-1	3	11	44	6	45	-1	43	30	-1	20	9	-1	19	10	23	-1	27	28	15	-1	21	-1	-1	2	47	-1	40	35	12	-1	26	-1	49	16	-1	-1	33	-1	-1	17
49 
44 33 49 4
37 12 11 16
33 28 2 13
28 47 19 7
17 13 25 17
27 2 18 23
2 1 18 34
49 35 45 47
35 24 13 25
45 1 41 6
14 4 39 25
5 46 11 6
24 43 31 12
3 1 47 3
19 48 46 35
10 33 18 15
14 27 3 4
6 10 27 37
4 27 27 44
23 20 20 29
3 5 9 43
27 22 13 39
42 3 33 5
26 28 36 23
44 6 6 44
47 19 31 11
14 8 9 41
26 22 39 4
35 39 1 43
36 5 7 12
45 2 34 46
41 27 47 37
10 44 2 12
37 11 2 8
22 10 48 15
2 30 39 36
25 21 14 9
29 13 45 39
11 33 14 14
29 23 23 49
16 44 26 13
45 15 23 35
47 1 20 30
39 45 18 7
29 42 43 17
32 44 28 9
28 45 4 41
48 23 21 45
30 24 32 7
